\ LP format - for model browsing. Use MPS format to capture full model detail.
Minimize
  8.4 RUp(g1,s1,t1) - 7.6 RDn(g1,s1,t1) + 12.6 RUpSC(g1,s1,t1)
   - 11.4 RDnSC(g1,s1,t1) + 5000 Lshed(s1,t1) + 8.4 RUp(g1,s1,t2)
   - 7.6 RDn(g1,s1,t2) + 12.6 RUpSC(g1,s1,t2) - 11.4 RDnSC(g1,s1,t2)
   + 5000 Lshed(s1,t2) + 8.4 RUp(g1,s1,t3) - 7.6 RDn(g1,s1,t3)
   + 12.6 RUpSC(g1,s1,t3) - 11.4 RDnSC(g1,s1,t3) + 5000 Lshed(s1,t3)
   + 8.4 RUp(g1,s1,t4) - 7.6 RDn(g1,s1,t4) + 12.6 RUpSC(g1,s1,t4)
   - 11.4 RDnSC(g1,s1,t4) + 5000 Lshed(s1,t4) + 8.4 RUp(g1,s1,t5)
   - 7.6 RDn(g1,s1,t5) + 12.6 RUpSC(g1,s1,t5) - 11.4 RDnSC(g1,s1,t5)
   + 5000 Lshed(s1,t5) + 8.4 RUp(g1,s1,t6) - 7.6 RDn(g1,s1,t6)
   + 12.6 RUpSC(g1,s1,t6) - 11.4 RDnSC(g1,s1,t6) + 5000 Lshed(s1,t6)
   + 8.4 RUp(g1,s1,t7) - 7.6 RDn(g1,s1,t7) + 12.6 RUpSC(g1,s1,t7)
   - 11.4 RDnSC(g1,s1,t7) + 5000 Lshed(s1,t7) + 8.4 RUp(g1,s1,t8)
   - 7.6 RDn(g1,s1,t8) + 12.6 RUpSC(g1,s1,t8) - 11.4 RDnSC(g1,s1,t8)
   + 5000 Lshed(s1,t8) + 8.4 RUp(g1,s1,t9) - 7.6 RDn(g1,s1,t9)
   + 12.6 RUpSC(g1,s1,t9) - 11.4 RDnSC(g1,s1,t9) + 5000 Lshed(s1,t9)
   + 8.4 RUp(g1,s1,t10) - 7.6 RDn(g1,s1,t10) + 12.6 RUpSC(g1,s1,t10)
   - 11.4 RDnSC(g1,s1,t10) + 5000 Lshed(s1,t10) + 8.4 RUp(g1,s1,t11)
   - 7.6 RDn(g1,s1,t11) + 12.6 RUpSC(g1,s1,t11) - 11.4 RDnSC(g1,s1,t11)
   + 5000 Lshed(s1,t11) + 8.4 RUp(g1,s1,t12) - 7.6 RDn(g1,s1,t12)
   + 12.6 RUpSC(g1,s1,t12) - 11.4 RDnSC(g1,s1,t12) + 5000 Lshed(s1,t12)
   + 8.4 RUp(g1,s1,t13) - 7.6 RDn(g1,s1,t13) + 12.6 RUpSC(g1,s1,t13)
   - 11.4 RDnSC(g1,s1,t13) + 5000 Lshed(s1,t13) + 8.4 RUp(g1,s1,t14)
   - 7.6 RDn(g1,s1,t14) + 12.6 RUpSC(g1,s1,t14) - 11.4 RDnSC(g1,s1,t14)
   + 5000 Lshed(s1,t14) + 8.4 RUp(g1,s1,t15) - 7.6 RDn(g1,s1,t15)
   + 12.6 RUpSC(g1,s1,t15) - 11.4 RDnSC(g1,s1,t15) + 5000 Lshed(s1,t15)
   + 8.4 RUp(g1,s1,t16) - 7.6 RDn(g1,s1,t16) + 12.6 RUpSC(g1,s1,t16)
   - 11.4 RDnSC(g1,s1,t16) + 5000 Lshed(s1,t16) + 8.4 RUp(g1,s1,t17)
   - 7.6 RDn(g1,s1,t17) + 12.6 RUpSC(g1,s1,t17) - 11.4 RDnSC(g1,s1,t17)
   + 5000 Lshed(s1,t17) + 8.4 RUp(g1,s1,t18) - 7.6 RDn(g1,s1,t18)
   + 12.6 RUpSC(g1,s1,t18) - 11.4 RDnSC(g1,s1,t18) + 5000 Lshed(s1,t18)
   + 8.4 RUp(g1,s1,t19) - 7.6 RDn(g1,s1,t19) + 12.6 RUpSC(g1,s1,t19)
   - 11.4 RDnSC(g1,s1,t19) + 5000 Lshed(s1,t19) + 8.4 RUp(g1,s1,t20)
   - 7.6 RDn(g1,s1,t20) + 12.6 RUpSC(g1,s1,t20) - 11.4 RDnSC(g1,s1,t20)
   + 5000 Lshed(s1,t20) + 8.4 RUp(g1,s1,t21) - 7.6 RDn(g1,s1,t21)
   + 12.6 RUpSC(g1,s1,t21) - 11.4 RDnSC(g1,s1,t21) + 5000 Lshed(s1,t21)
   + 8.4 RUp(g1,s1,t22) - 7.6 RDn(g1,s1,t22) + 12.6 RUpSC(g1,s1,t22)
   - 11.4 RDnSC(g1,s1,t22) + 5000 Lshed(s1,t22) + 8.4 RUp(g1,s1,t23)
   - 7.6 RDn(g1,s1,t23) + 12.6 RUpSC(g1,s1,t23) - 11.4 RDnSC(g1,s1,t23)
   + 5000 Lshed(s1,t23) + 8.4 RUp(g1,s1,t24) - 7.6 RDn(g1,s1,t24)
   + 12.6 RUpSC(g1,s1,t24) - 11.4 RDnSC(g1,s1,t24) + 5000 Lshed(s1,t24)
   + 8.4 RUp(g1,s2,t1) - 7.6 RDn(g1,s2,t1) + 12.6 RUpSC(g1,s2,t1)
   - 11.4 RDnSC(g1,s2,t1) + 5000 Lshed(s2,t1) + 8.4 RUp(g1,s2,t2)
   - 7.6 RDn(g1,s2,t2) + 12.6 RUpSC(g1,s2,t2) - 11.4 RDnSC(g1,s2,t2)
   + 5000 Lshed(s2,t2) + 8.4 RUp(g1,s2,t3) - 7.6 RDn(g1,s2,t3)
   + 12.6 RUpSC(g1,s2,t3) - 11.4 RDnSC(g1,s2,t3) + 5000 Lshed(s2,t3)
   + 8.4 RUp(g1,s2,t4) - 7.6 RDn(g1,s2,t4) + 12.6 RUpSC(g1,s2,t4)
   - 11.4 RDnSC(g1,s2,t4) + 5000 Lshed(s2,t4) + 8.4 RUp(g1,s2,t5)
   - 7.6 RDn(g1,s2,t5) + 12.6 RUpSC(g1,s2,t5) - 11.4 RDnSC(g1,s2,t5)
   + 5000 Lshed(s2,t5) + 8.4 RUp(g1,s2,t6) - 7.6 RDn(g1,s2,t6)
   + 12.6 RUpSC(g1,s2,t6) - 11.4 RDnSC(g1,s2,t6) + 5000 Lshed(s2,t6)
   + 8.4 RUp(g1,s2,t7) - 7.6 RDn(g1,s2,t7) + 12.6 RUpSC(g1,s2,t7)
   - 11.4 RDnSC(g1,s2,t7) + 5000 Lshed(s2,t7) + 8.4 RUp(g1,s2,t8)
   - 7.6 RDn(g1,s2,t8) + 12.6 RUpSC(g1,s2,t8) - 11.4 RDnSC(g1,s2,t8)
   + 5000 Lshed(s2,t8) + 8.4 RUp(g1,s2,t9) - 7.6 RDn(g1,s2,t9)
   + 12.6 RUpSC(g1,s2,t9) - 11.4 RDnSC(g1,s2,t9) + 5000 Lshed(s2,t9)
   + 8.4 RUp(g1,s2,t10) - 7.6 RDn(g1,s2,t10) + 12.6 RUpSC(g1,s2,t10)
   - 11.4 RDnSC(g1,s2,t10) + 5000 Lshed(s2,t10) + 8.4 RUp(g1,s2,t11)
   - 7.6 RDn(g1,s2,t11) + 12.6 RUpSC(g1,s2,t11) - 11.4 RDnSC(g1,s2,t11)
   + 5000 Lshed(s2,t11) + 8.4 RUp(g1,s2,t12) - 7.6 RDn(g1,s2,t12)
   + 12.6 RUpSC(g1,s2,t12) - 11.4 RDnSC(g1,s2,t12) + 5000 Lshed(s2,t12)
   + 8.4 RUp(g1,s2,t13) - 7.6 RDn(g1,s2,t13) + 12.6 RUpSC(g1,s2,t13)
   - 11.4 RDnSC(g1,s2,t13) + 5000 Lshed(s2,t13) + 8.4 RUp(g1,s2,t14)
   - 7.6 RDn(g1,s2,t14) + 12.6 RUpSC(g1,s2,t14) - 11.4 RDnSC(g1,s2,t14)
   + 5000 Lshed(s2,t14) + 8.4 RUp(g1,s2,t15) - 7.6 RDn(g1,s2,t15)
   + 12.6 RUpSC(g1,s2,t15) - 11.4 RDnSC(g1,s2,t15) + 5000 Lshed(s2,t15)
   + 8.4 RUp(g1,s2,t16) - 7.6 RDn(g1,s2,t16) + 12.6 RUpSC(g1,s2,t16)
   - 11.4 RDnSC(g1,s2,t16) + 5000 Lshed(s2,t16) + 8.4 RUp(g1,s2,t17)
   - 7.6 RDn(g1,s2,t17) + 12.6 RUpSC(g1,s2,t17) - 11.4 RDnSC(g1,s2,t17)
   + 5000 Lshed(s2,t17) + 8.4 RUp(g1,s2,t18) - 7.6 RDn(g1,s2,t18)
   + 12.6 RUpSC(g1,s2,t18) - 11.4 RDnSC(g1,s2,t18) + 5000 Lshed(s2,t18)
   + 8.4 RUp(g1,s2,t19) - 7.6 RDn(g1,s2,t19) + 12.6 RUpSC(g1,s2,t19)
   - 11.4 RDnSC(g1,s2,t19) + 5000 Lshed(s2,t19) + 8.4 RUp(g1,s2,t20)
   - 7.6 RDn(g1,s2,t20) + 12.6 RUpSC(g1,s2,t20) - 11.4 RDnSC(g1,s2,t20)
   + 5000 Lshed(s2,t20) + 8.4 RUp(g1,s2,t21) - 7.6 RDn(g1,s2,t21)
   + 12.6 RUpSC(g1,s2,t21) - 11.4 RDnSC(g1,s2,t21) + 5000 Lshed(s2,t21)
   + 8.4 RUp(g1,s2,t22) - 7.6 RDn(g1,s2,t22) + 12.6 RUpSC(g1,s2,t22)
   - 11.4 RDnSC(g1,s2,t22) + 5000 Lshed(s2,t22) + 8.4 RUp(g1,s2,t23)
   - 7.6 RDn(g1,s2,t23) + 12.6 RUpSC(g1,s2,t23) - 11.4 RDnSC(g1,s2,t23)
   + 5000 Lshed(s2,t23) + 8.4 RUp(g1,s2,t24) - 7.6 RDn(g1,s2,t24)
   + 12.6 RUpSC(g1,s2,t24) - 11.4 RDnSC(g1,s2,t24) + 5000 Lshed(s2,t24)
Subject To
 PowerBalance_RT(s1,t1): RUp(g1,s1,t1) - RDn(g1,s1,t1) + RUpSC(g1,s1,t1)
   - RDnSC(g1,s1,t1) - Wspill(w1,s1,t1) + Lshed(s1,t1)
   = 0.9976439100000043
 PowerBalance_RT(s1,t2): RUp(g1,s1,t2) - RDn(g1,s1,t2) + RUpSC(g1,s1,t2)
   - RDnSC(g1,s1,t2) - Wspill(w1,s1,t2) + Lshed(s1,t2)
   = -0.1315735049999969
 PowerBalance_RT(s1,t3): RUp(g1,s1,t3) - RDn(g1,s1,t3) + RUpSC(g1,s1,t3)
   - RDnSC(g1,s1,t3) - Wspill(w1,s1,t3) + Lshed(s1,t3)
   = -1.556227244999997
 PowerBalance_RT(s1,t4): RUp(g1,s1,t4) - RDn(g1,s1,t4) + RUpSC(g1,s1,t4)
   - RDnSC(g1,s1,t4) - Wspill(w1,s1,t4) + Lshed(s1,t4)
   = -3.860157224999997
 PowerBalance_RT(s1,t5): RUp(g1,s1,t5) - RDn(g1,s1,t5) + RUpSC(g1,s1,t5)
   - RDnSC(g1,s1,t5) - Wspill(w1,s1,t5) + Lshed(s1,t5)
   = -5.952728204999998
 PowerBalance_RT(s1,t6): RUp(g1,s1,t6) - RDn(g1,s1,t6) + RUpSC(g1,s1,t6)
   - RDnSC(g1,s1,t6) - Wspill(w1,s1,t6) + Lshed(s1,t6)
   = -7.094473754999997
 PowerBalance_RT(s1,t7): RUp(g1,s1,t7) - RDn(g1,s1,t7) + RUpSC(g1,s1,t7)
   - RDnSC(g1,s1,t7) - Wspill(w1,s1,t7) + Lshed(s1,t7)
   = -5.137621259999998
 PowerBalance_RT(s1,t8): RUp(g1,s1,t8) - RDn(g1,s1,t8) + RUpSC(g1,s1,t8)
   - RDnSC(g1,s1,t8) - Wspill(w1,s1,t8) + Lshed(s1,t8)
   = -3.142303334999998
 PowerBalance_RT(s1,t9): RUp(g1,s1,t9) - RDn(g1,s1,t9) + RUpSC(g1,s1,t9)
   - RDnSC(g1,s1,t9) - Wspill(w1,s1,t9) + Lshed(s1,t9)
   = -2.154611249999999
 PowerBalance_RT(s1,t10): RUp(g1,s1,t10) - RDn(g1,s1,t10)
   + RUpSC(g1,s1,t10) - RDnSC(g1,s1,t10) - Wspill(w1,s1,t10)
   + Lshed(s1,t10) = -1.951492469999998
 PowerBalance_RT(s1,t11): RUp(g1,s1,t11) - RDn(g1,s1,t11)
   + RUpSC(g1,s1,t11) - RDnSC(g1,s1,t11) - Wspill(w1,s1,t11)
   + Lshed(s1,t11) = -2.983184504999999
 PowerBalance_RT(s1,t12): RUp(g1,s1,t12) - RDn(g1,s1,t12)
   + RUpSC(g1,s1,t12) - RDnSC(g1,s1,t12) - Wspill(w1,s1,t12)
   + Lshed(s1,t12) = -3.130044614999997
 PowerBalance_RT(s1,t13): RUp(g1,s1,t13) - RDn(g1,s1,t13)
   + RUpSC(g1,s1,t13) - RDnSC(g1,s1,t13) - Wspill(w1,s1,t13)
   + Lshed(s1,t13) = -6.498970649999997
 PowerBalance_RT(s1,t14): RUp(g1,s1,t14) - RDn(g1,s1,t14)
   + RUpSC(g1,s1,t14) - RDnSC(g1,s1,t14) - Wspill(w1,s1,t14)
   + Lshed(s1,t14) = -13.27316202
 PowerBalance_RT(s1,t15): RUp(g1,s1,t15) - RDn(g1,s1,t15)
   + RUpSC(g1,s1,t15) - RDnSC(g1,s1,t15) - Wspill(w1,s1,t15)
   + Lshed(s1,t15) = -12.90769581
 PowerBalance_RT(s1,t16): RUp(g1,s1,t16) - RDn(g1,s1,t16)
   + RUpSC(g1,s1,t16) - RDnSC(g1,s1,t16) - Wspill(w1,s1,t16)
   + Lshed(s1,t16) = -17.45472933
 PowerBalance_RT(s1,t17): RUp(g1,s1,t17) - RDn(g1,s1,t17)
   + RUpSC(g1,s1,t17) - RDnSC(g1,s1,t17) - Wspill(w1,s1,t17)
   + Lshed(s1,t17) = -14.77555875
 PowerBalance_RT(s1,t18): RUp(g1,s1,t18) - RDn(g1,s1,t18)
   + RUpSC(g1,s1,t18) - RDnSC(g1,s1,t18) - Wspill(w1,s1,t18)
   + Lshed(s1,t18) = -14.0011092
 PowerBalance_RT(s1,t19): RUp(g1,s1,t19) - RDn(g1,s1,t19)
   + RUpSC(g1,s1,t19) - RDnSC(g1,s1,t19) - Wspill(w1,s1,t19)
   + Lshed(s1,t19) = -17.45001798
 PowerBalance_RT(s1,t20): RUp(g1,s1,t20) - RDn(g1,s1,t20)
   + RUpSC(g1,s1,t20) - RDnSC(g1,s1,t20) - Wspill(w1,s1,t20)
   + Lshed(s1,t20) = -17.03274768
 PowerBalance_RT(s1,t21): RUp(g1,s1,t21) - RDn(g1,s1,t21)
   + RUpSC(g1,s1,t21) - RDnSC(g1,s1,t21) - Wspill(w1,s1,t21)
   + Lshed(s1,t21) = -16.93776768
 PowerBalance_RT(s1,t22): RUp(g1,s1,t22) - RDn(g1,s1,t22)
   + RUpSC(g1,s1,t22) - RDnSC(g1,s1,t22) - Wspill(w1,s1,t22)
   + Lshed(s1,t22) = -16.67082684
 PowerBalance_RT(s1,t23): RUp(g1,s1,t23) - RDn(g1,s1,t23)
   + RUpSC(g1,s1,t23) - RDnSC(g1,s1,t23) - Wspill(w1,s1,t23)
   + Lshed(s1,t23) = -15.06487779
 PowerBalance_RT(s1,t24): RUp(g1,s1,t24) - RDn(g1,s1,t24)
   + RUpSC(g1,s1,t24) - RDnSC(g1,s1,t24) - Wspill(w1,s1,t24)
   + Lshed(s1,t24) = -7.539684014999995
 PowerBalance_RT(s2,t1): RUp(g1,s2,t1) - RDn(g1,s2,t1) + RUpSC(g1,s2,t1)
   - RDnSC(g1,s2,t1) - Wspill(w1,s2,t1) + Lshed(s2,t1)
   = -0.9976439099999954
 PowerBalance_RT(s2,t2): RUp(g1,s2,t2) - RDn(g1,s2,t2) + RUpSC(g1,s2,t2)
   - RDnSC(g1,s2,t2) - Wspill(w1,s2,t2) + Lshed(s2,t2) = 0.131573505000004
 PowerBalance_RT(s2,t3): RUp(g1,s2,t3) - RDn(g1,s2,t3) + RUpSC(g1,s2,t3)
   - RDnSC(g1,s2,t3) - Wspill(w1,s2,t3) + Lshed(s2,t3) = 1.556227245000002
 PowerBalance_RT(s2,t4): RUp(g1,s2,t4) - RDn(g1,s2,t4) + RUpSC(g1,s2,t4)
   - RDnSC(g1,s2,t4) - Wspill(w1,s2,t4) + Lshed(s2,t4) = 3.860157225000001
 PowerBalance_RT(s2,t5): RUp(g1,s2,t5) - RDn(g1,s2,t5) + RUpSC(g1,s2,t5)
   - RDnSC(g1,s2,t5) - Wspill(w1,s2,t5) + Lshed(s2,t5) = 5.952728205000001
 PowerBalance_RT(s2,t6): RUp(g1,s2,t6) - RDn(g1,s2,t6) + RUpSC(g1,s2,t6)
   - RDnSC(g1,s2,t6) - Wspill(w1,s2,t6) + Lshed(s2,t6) = 7.094473755000003
 PowerBalance_RT(s2,t7): RUp(g1,s2,t7) - RDn(g1,s2,t7) + RUpSC(g1,s2,t7)
   - RDnSC(g1,s2,t7) - Wspill(w1,s2,t7) + Lshed(s2,t7) = 5.137621260000002
 PowerBalance_RT(s2,t8): RUp(g1,s2,t8) - RDn(g1,s2,t8) + RUpSC(g1,s2,t8)
   - RDnSC(g1,s2,t8) - Wspill(w1,s2,t8) + Lshed(s2,t8) = 3.142303335000002
 PowerBalance_RT(s2,t9): RUp(g1,s2,t9) - RDn(g1,s2,t9) + RUpSC(g1,s2,t9)
   - RDnSC(g1,s2,t9) - Wspill(w1,s2,t9) + Lshed(s2,t9) = 2.15461125
 PowerBalance_RT(s2,t10): RUp(g1,s2,t10) - RDn(g1,s2,t10)
   + RUpSC(g1,s2,t10) - RDnSC(g1,s2,t10) - Wspill(w1,s2,t10)
   + Lshed(s2,t10) = 1.951492470000003
 PowerBalance_RT(s2,t11): RUp(g1,s2,t11) - RDn(g1,s2,t11)
   + RUpSC(g1,s2,t11) - RDnSC(g1,s2,t11) - Wspill(w1,s2,t11)
   + Lshed(s2,t11) = 2.983184505000001
 PowerBalance_RT(s2,t12): RUp(g1,s2,t12) - RDn(g1,s2,t12)
   + RUpSC(g1,s2,t12) - RDnSC(g1,s2,t12) - Wspill(w1,s2,t12)
   + Lshed(s2,t12) = 3.130044615000001
 PowerBalance_RT(s2,t13): RUp(g1,s2,t13) - RDn(g1,s2,t13)
   + RUpSC(g1,s2,t13) - RDnSC(g1,s2,t13) - Wspill(w1,s2,t13)
   + Lshed(s2,t13) = 6.49897065
 PowerBalance_RT(s2,t14): RUp(g1,s2,t14) - RDn(g1,s2,t14)
   + RUpSC(g1,s2,t14) - RDnSC(g1,s2,t14) - Wspill(w1,s2,t14)
   + Lshed(s2,t14) = 0
 PowerBalance_RT(s2,t15): RUp(g1,s2,t15) - RDn(g1,s2,t15)
   + RUpSC(g1,s2,t15) - RDnSC(g1,s2,t15) - Wspill(w1,s2,t15)
   + Lshed(s2,t15) = 0
 PowerBalance_RT(s2,t16): RUp(g1,s2,t16) - RDn(g1,s2,t16)
   + RUpSC(g1,s2,t16) - RDnSC(g1,s2,t16) - Wspill(w1,s2,t16)
   + Lshed(s2,t16) = 0
 PowerBalance_RT(s2,t17): RUp(g1,s2,t17) - RDn(g1,s2,t17)
   + RUpSC(g1,s2,t17) - RDnSC(g1,s2,t17) - Wspill(w1,s2,t17)
   + Lshed(s2,t17) = 0
 PowerBalance_RT(s2,t18): RUp(g1,s2,t18) - RDn(g1,s2,t18)
   + RUpSC(g1,s2,t18) - RDnSC(g1,s2,t18) - Wspill(w1,s2,t18)
   + Lshed(s2,t18) = 0
 PowerBalance_RT(s2,t19): RUp(g1,s2,t19) - RDn(g1,s2,t19)
   + RUpSC(g1,s2,t19) - RDnSC(g1,s2,t19) - Wspill(w1,s2,t19)
   + Lshed(s2,t19) = 0
 PowerBalance_RT(s2,t20): RUp(g1,s2,t20) - RDn(g1,s2,t20)
   + RUpSC(g1,s2,t20) - RDnSC(g1,s2,t20) - Wspill(w1,s2,t20)
   + Lshed(s2,t20) = 0
 PowerBalance_RT(s2,t21): RUp(g1,s2,t21) - RDn(g1,s2,t21)
   + RUpSC(g1,s2,t21) - RDnSC(g1,s2,t21) - Wspill(w1,s2,t21)
   + Lshed(s2,t21) = 0
 PowerBalance_RT(s2,t22): RUp(g1,s2,t22) - RDn(g1,s2,t22)
   + RUpSC(g1,s2,t22) - RDnSC(g1,s2,t22) - Wspill(w1,s2,t22)
   + Lshed(s2,t22) = 0
 PowerBalance_RT(s2,t23): RUp(g1,s2,t23) - RDn(g1,s2,t23)
   + RUpSC(g1,s2,t23) - RDnSC(g1,s2,t23) - Wspill(w1,s2,t23)
   + Lshed(s2,t23) = 0
 PowerBalance_RT(s2,t24): RUp(g1,s2,t24) - RDn(g1,s2,t24)
   + RUpSC(g1,s2,t24) - RDnSC(g1,s2,t24) - Wspill(w1,s2,t24)
   + Lshed(s2,t24) = 7.539684015000002
 RegUp_max_RT(g1,s1,t1): RUp(g1,s1,t1) <= 24.64288219000001
 RegDown_max_RT(g1,s1,t1): RDn(g1,s1,t1) <= 35.35711780999999
 RegUp_max_RT(g1,s1,t2): RUp(g1,s1,t2) <= 22.706431295
 RegDown_max_RT(g1,s1,t2): RDn(g1,s1,t2) <= 37.293568705
 RegUp_max_RT(g1,s1,t3): RUp(g1,s1,t3) <= 15.515046975
 RegDown_max_RT(g1,s1,t3): RDn(g1,s1,t3) <= 44.484953025
 RegUp_max_RT(g1,s1,t4): RUp(g1,s1,t4) <= 12.849260535
 RegDown_max_RT(g1,s1,t4): RDn(g1,s1,t4) <= 47.15073946499999
 RegUp_max_RT(g1,s1,t5): RUp(g1,s1,t5) <= 13.088265225
 RegDown_max_RT(g1,s1,t5): RDn(g1,s1,t5) <= 46.911734775
 RegUp_max_RT(g1,s1,t6): RUp(g1,s1,t6) <= 14.052156215
 RegDown_max_RT(g1,s1,t6): RDn(g1,s1,t6) <= 45.947843785
 RegUp_max_RT(g1,s1,t7): RUp(g1,s1,t7) <= 12.95995847
 RegDown_max_RT(g1,s1,t7): RDn(g1,s1,t7) <= 47.04004153
 RegUp_max_RT(g1,s1,t8): RUp(g1,s1,t8) <= 11.376331265
 RegDown_max_RT(g1,s1,t8): RDn(g1,s1,t8) <= 48.623668735
 RegUp_max_RT(g1,s1,t9): RUp(g1,s1,t9) <= 11.54778972
 RegDown_max_RT(g1,s1,t9): RDn(g1,s1,t9) <= 48.45221028
 RegUp_max_RT(g1,s1,t10): RUp(g1,s1,t10) <= 14.29350291
 RegDown_max_RT(g1,s1,t10): RDn(g1,s1,t10) <= 45.70649709
 RegUp_max_RT(g1,s1,t11): RUp(g1,s1,t11) <= 17.753729715
 RegDown_max_RT(g1,s1,t11): RDn(g1,s1,t11) <= 42.246270285
 RegUp_max_RT(g1,s1,t12): RUp(g1,s1,t12) <= 20.367043445
 RegDown_max_RT(g1,s1,t12): RDn(g1,s1,t12) <= 39.632956555
 RegUp_max_RT(g1,s1,t13): RUp(g1,s1,t13) <= 26.17232308
 RegDown_max_RT(g1,s1,t13): RDn(g1,s1,t13) <= 33.82767692
 RegUp_max_RT(g1,s1,t14): RUp(g1,s1,t14) <= 21.27470784000001
 RegDown_max_RT(g1,s1,t14): RDn(g1,s1,t14) <= 38.72529216
 RegUp_max_RT(g1,s1,t15): RUp(g1,s1,t15) <= 23.67659936
 RegDown_max_RT(g1,s1,t15): RDn(g1,s1,t15) <= 36.32340064
 RegUp_max_RT(g1,s1,t16): RUp(g1,s1,t16) <= 21.75302969
 RegDown_max_RT(g1,s1,t16): RDn(g1,s1,t16) <= 38.24697031
 RegUp_max_RT(g1,s1,t17): RUp(g1,s1,t17) <= 26.5174973
 RegDown_max_RT(g1,s1,t17): RDn(g1,s1,t17) <= 33.4825027
 RegUp_max_RT(g1,s1,t18): RUp(g1,s1,t18) <= 28.6755783
 RegDown_max_RT(g1,s1,t18): RDn(g1,s1,t18) <= 31.3244217
 RegUp_max_RT(g1,s1,t19): RUp(g1,s1,t19) <= 25.52609511
 RegDown_max_RT(g1,s1,t19): RDn(g1,s1,t19) <= 34.47390489
 RegUp_max_RT(g1,s1,t20): RUp(g1,s1,t20) <= 24.44621097
 RegDown_max_RT(g1,s1,t20): RDn(g1,s1,t20) <= 35.55378903
 RegUp_max_RT(g1,s1,t21): RUp(g1,s1,t21) <= 24.41045447
 RegDown_max_RT(g1,s1,t21): RDn(g1,s1,t21) <= 35.58954553
 RegUp_max_RT(g1,s1,t22): RUp(g1,s1,t22) <= 25.1876795
 RegDown_max_RT(g1,s1,t22): RDn(g1,s1,t22) <= 34.8123205
 RegUp_max_RT(g1,s1,t23): RUp(g1,s1,t23) <= 26.31197936
 RegDown_max_RT(g1,s1,t23): RDn(g1,s1,t23) <= 33.68802064
 RegUp_max_RT(g1,s1,t24): RUp(g1,s1,t24) <= 32.39796547500001
 RegDown_max_RT(g1,s1,t24): RDn(g1,s1,t24) <= 27.60203452499999
 RegUp_max_RT(g1,s2,t1): RUp(g1,s2,t1) <= 24.64288219000001
 RegDown_max_RT(g1,s2,t1): RDn(g1,s2,t1) <= 35.35711780999999
 RegUp_max_RT(g1,s2,t2): RUp(g1,s2,t2) <= 22.706431295
 RegDown_max_RT(g1,s2,t2): RDn(g1,s2,t2) <= 37.293568705
 RegUp_max_RT(g1,s2,t3): RUp(g1,s2,t3) <= 15.515046975
 RegDown_max_RT(g1,s2,t3): RDn(g1,s2,t3) <= 44.484953025
 RegUp_max_RT(g1,s2,t4): RUp(g1,s2,t4) <= 12.849260535
 RegDown_max_RT(g1,s2,t4): RDn(g1,s2,t4) <= 47.15073946499999
 RegUp_max_RT(g1,s2,t5): RUp(g1,s2,t5) <= 13.088265225
 RegDown_max_RT(g1,s2,t5): RDn(g1,s2,t5) <= 46.911734775
 RegUp_max_RT(g1,s2,t6): RUp(g1,s2,t6) <= 14.052156215
 RegDown_max_RT(g1,s2,t6): RDn(g1,s2,t6) <= 45.947843785
 RegUp_max_RT(g1,s2,t7): RUp(g1,s2,t7) <= 12.95995847
 RegDown_max_RT(g1,s2,t7): RDn(g1,s2,t7) <= 47.04004153
 RegUp_max_RT(g1,s2,t8): RUp(g1,s2,t8) <= 11.376331265
 RegDown_max_RT(g1,s2,t8): RDn(g1,s2,t8) <= 48.623668735
 RegUp_max_RT(g1,s2,t9): RUp(g1,s2,t9) <= 11.54778972
 RegDown_max_RT(g1,s2,t9): RDn(g1,s2,t9) <= 48.45221028
 RegUp_max_RT(g1,s2,t10): RUp(g1,s2,t10) <= 14.29350291
 RegDown_max_RT(g1,s2,t10): RDn(g1,s2,t10) <= 45.70649709
 RegUp_max_RT(g1,s2,t11): RUp(g1,s2,t11) <= 17.753729715
 RegDown_max_RT(g1,s2,t11): RDn(g1,s2,t11) <= 42.246270285
 RegUp_max_RT(g1,s2,t12): RUp(g1,s2,t12) <= 20.367043445
 RegDown_max_RT(g1,s2,t12): RDn(g1,s2,t12) <= 39.632956555
 RegUp_max_RT(g1,s2,t13): RUp(g1,s2,t13) <= 26.17232308
 RegDown_max_RT(g1,s2,t13): RDn(g1,s2,t13) <= 33.82767692
 RegUp_max_RT(g1,s2,t14): RUp(g1,s2,t14) <= 21.27470784000001
 RegDown_max_RT(g1,s2,t14): RDn(g1,s2,t14) <= 38.72529216
 RegUp_max_RT(g1,s2,t15): RUp(g1,s2,t15) <= 23.67659936
 RegDown_max_RT(g1,s2,t15): RDn(g1,s2,t15) <= 36.32340064
 RegUp_max_RT(g1,s2,t16): RUp(g1,s2,t16) <= 21.75302969
 RegDown_max_RT(g1,s2,t16): RDn(g1,s2,t16) <= 38.24697031
 RegUp_max_RT(g1,s2,t17): RUp(g1,s2,t17) <= 26.5174973
 RegDown_max_RT(g1,s2,t17): RDn(g1,s2,t17) <= 33.4825027
 RegUp_max_RT(g1,s2,t18): RUp(g1,s2,t18) <= 28.6755783
 RegDown_max_RT(g1,s2,t18): RDn(g1,s2,t18) <= 31.3244217
 RegUp_max_RT(g1,s2,t19): RUp(g1,s2,t19) <= 25.52609511
 RegDown_max_RT(g1,s2,t19): RDn(g1,s2,t19) <= 34.47390489
 RegUp_max_RT(g1,s2,t20): RUp(g1,s2,t20) <= 24.44621097
 RegDown_max_RT(g1,s2,t20): RDn(g1,s2,t20) <= 35.55378903
 RegUp_max_RT(g1,s2,t21): RUp(g1,s2,t21) <= 24.41045447
 RegDown_max_RT(g1,s2,t21): RDn(g1,s2,t21) <= 35.58954553
 RegUp_max_RT(g1,s2,t22): RUp(g1,s2,t22) <= 25.1876795
 RegDown_max_RT(g1,s2,t22): RDn(g1,s2,t22) <= 34.8123205
 RegUp_max_RT(g1,s2,t23): RUp(g1,s2,t23) <= 26.31197936
 RegDown_max_RT(g1,s2,t23): RDn(g1,s2,t23) <= 33.68802064
 RegUp_max_RT(g1,s2,t24): RUp(g1,s2,t24) <= 32.39796547500001
 RegDown_max_RT(g1,s2,t24): RDn(g1,s2,t24) <= 27.60203452499999
 RegUpSC_max_RT(g1,s1,t1): RUpSC(g1,s1,t1) <= 0
 RegDnSC_max_RT(g1,s1,t1): RDnSC(g1,s1,t1) <= 0
 RegUpSC_max_RT(g1,s1,t2): RUpSC(g1,s1,t2) <= 0
 RegDnSC_max_RT(g1,s1,t2): RDnSC(g1,s1,t2) <= 0
 RegUpSC_max_RT(g1,s1,t3): RUpSC(g1,s1,t3) <= 0
 RegDnSC_max_RT(g1,s1,t3): RDnSC(g1,s1,t3) <= 0
 RegUpSC_max_RT(g1,s1,t4): RUpSC(g1,s1,t4) <= 0
 RegDnSC_max_RT(g1,s1,t4): RDnSC(g1,s1,t4) <= 0
 RegUpSC_max_RT(g1,s1,t5): RUpSC(g1,s1,t5) <= 0
 RegDnSC_max_RT(g1,s1,t5): RDnSC(g1,s1,t5) <= 0
 RegUpSC_max_RT(g1,s1,t6): RUpSC(g1,s1,t6) <= 0
 RegDnSC_max_RT(g1,s1,t6): RDnSC(g1,s1,t6) <= 0
 RegUpSC_max_RT(g1,s1,t7): RUpSC(g1,s1,t7) <= 0
 RegDnSC_max_RT(g1,s1,t7): RDnSC(g1,s1,t7) <= 0
 RegUpSC_max_RT(g1,s1,t8): RUpSC(g1,s1,t8) <= 0
 RegDnSC_max_RT(g1,s1,t8): RDnSC(g1,s1,t8) <= 0
 RegUpSC_max_RT(g1,s1,t9): RUpSC(g1,s1,t9) <= 0
 RegDnSC_max_RT(g1,s1,t9): RDnSC(g1,s1,t9) <= 0
 RegUpSC_max_RT(g1,s1,t10): RUpSC(g1,s1,t10) <= 0
 RegDnSC_max_RT(g1,s1,t10): RDnSC(g1,s1,t10) <= 0
 RegUpSC_max_RT(g1,s1,t11): RUpSC(g1,s1,t11) <= 0
 RegDnSC_max_RT(g1,s1,t11): RDnSC(g1,s1,t11) <= 0
 RegUpSC_max_RT(g1,s1,t12): RUpSC(g1,s1,t12) <= 0
 RegDnSC_max_RT(g1,s1,t12): RDnSC(g1,s1,t12) <= 0
 RegUpSC_max_RT(g1,s1,t13): RUpSC(g1,s1,t13) <= 0
 RegDnSC_max_RT(g1,s1,t13): RDnSC(g1,s1,t13) <= 0
 RegUpSC_max_RT(g1,s1,t14): RUpSC(g1,s1,t14) <= 0
 RegDnSC_max_RT(g1,s1,t14): RDnSC(g1,s1,t14) <= 0
 RegUpSC_max_RT(g1,s1,t15): RUpSC(g1,s1,t15) <= 0
 RegDnSC_max_RT(g1,s1,t15): RDnSC(g1,s1,t15) <= 0
 RegUpSC_max_RT(g1,s1,t16): RUpSC(g1,s1,t16) <= 0
 RegDnSC_max_RT(g1,s1,t16): RDnSC(g1,s1,t16) <= 0
 RegUpSC_max_RT(g1,s1,t17): RUpSC(g1,s1,t17) <= 0
 RegDnSC_max_RT(g1,s1,t17): RDnSC(g1,s1,t17) <= 0
 RegUpSC_max_RT(g1,s1,t18): RUpSC(g1,s1,t18) <= 0
 RegDnSC_max_RT(g1,s1,t18): RDnSC(g1,s1,t18) <= 0
 RegUpSC_max_RT(g1,s1,t19): RUpSC(g1,s1,t19) <= 0
 RegDnSC_max_RT(g1,s1,t19): RDnSC(g1,s1,t19) <= 0
 RegUpSC_max_RT(g1,s1,t20): RUpSC(g1,s1,t20) <= 0
 RegDnSC_max_RT(g1,s1,t20): RDnSC(g1,s1,t20) <= 0
 RegUpSC_max_RT(g1,s1,t21): RUpSC(g1,s1,t21) <= 0
 RegDnSC_max_RT(g1,s1,t21): RDnSC(g1,s1,t21) <= 0
 RegUpSC_max_RT(g1,s1,t22): RUpSC(g1,s1,t22) <= 0
 RegDnSC_max_RT(g1,s1,t22): RDnSC(g1,s1,t22) <= 0
 RegUpSC_max_RT(g1,s1,t23): RUpSC(g1,s1,t23) <= 0
 RegDnSC_max_RT(g1,s1,t23): RDnSC(g1,s1,t23) <= 0
 RegUpSC_max_RT(g1,s1,t24): RUpSC(g1,s1,t24) <= 0
 RegDnSC_max_RT(g1,s1,t24): RDnSC(g1,s1,t24) <= 0
 RegUpSC_max_RT(g1,s2,t1): RUpSC(g1,s2,t1) <= 0
 RegDnSC_max_RT(g1,s2,t1): RDnSC(g1,s2,t1) <= 0
 RegUpSC_max_RT(g1,s2,t2): RUpSC(g1,s2,t2) <= 0
 RegDnSC_max_RT(g1,s2,t2): RDnSC(g1,s2,t2) <= 0
 RegUpSC_max_RT(g1,s2,t3): RUpSC(g1,s2,t3) <= 0
 RegDnSC_max_RT(g1,s2,t3): RDnSC(g1,s2,t3) <= 0
 RegUpSC_max_RT(g1,s2,t4): RUpSC(g1,s2,t4) <= 0
 RegDnSC_max_RT(g1,s2,t4): RDnSC(g1,s2,t4) <= 0
 RegUpSC_max_RT(g1,s2,t5): RUpSC(g1,s2,t5) <= 0
 RegDnSC_max_RT(g1,s2,t5): RDnSC(g1,s2,t5) <= 0
 RegUpSC_max_RT(g1,s2,t6): RUpSC(g1,s2,t6) <= 0
 RegDnSC_max_RT(g1,s2,t6): RDnSC(g1,s2,t6) <= 0
 RegUpSC_max_RT(g1,s2,t7): RUpSC(g1,s2,t7) <= 0
 RegDnSC_max_RT(g1,s2,t7): RDnSC(g1,s2,t7) <= 0
 RegUpSC_max_RT(g1,s2,t8): RUpSC(g1,s2,t8) <= 0
 RegDnSC_max_RT(g1,s2,t8): RDnSC(g1,s2,t8) <= 0
 RegUpSC_max_RT(g1,s2,t9): RUpSC(g1,s2,t9) <= 0
 RegDnSC_max_RT(g1,s2,t9): RDnSC(g1,s2,t9) <= 0
 RegUpSC_max_RT(g1,s2,t10): RUpSC(g1,s2,t10) <= 0
 RegDnSC_max_RT(g1,s2,t10): RDnSC(g1,s2,t10) <= 0
 RegUpSC_max_RT(g1,s2,t11): RUpSC(g1,s2,t11) <= 0
 RegDnSC_max_RT(g1,s2,t11): RDnSC(g1,s2,t11) <= 0
 RegUpSC_max_RT(g1,s2,t12): RUpSC(g1,s2,t12) <= 0
 RegDnSC_max_RT(g1,s2,t12): RDnSC(g1,s2,t12) <= 0
 RegUpSC_max_RT(g1,s2,t13): RUpSC(g1,s2,t13) <= 0
 RegDnSC_max_RT(g1,s2,t13): RDnSC(g1,s2,t13) <= 0
 RegUpSC_max_RT(g1,s2,t14): RUpSC(g1,s2,t14) <= 0
 RegDnSC_max_RT(g1,s2,t14): RDnSC(g1,s2,t14) <= 0
 RegUpSC_max_RT(g1,s2,t15): RUpSC(g1,s2,t15) <= 0
 RegDnSC_max_RT(g1,s2,t15): RDnSC(g1,s2,t15) <= 0
 RegUpSC_max_RT(g1,s2,t16): RUpSC(g1,s2,t16) <= 0
 RegDnSC_max_RT(g1,s2,t16): RDnSC(g1,s2,t16) <= 0
 RegUpSC_max_RT(g1,s2,t17): RUpSC(g1,s2,t17) <= 0
 RegDnSC_max_RT(g1,s2,t17): RDnSC(g1,s2,t17) <= 0
 RegUpSC_max_RT(g1,s2,t18): RUpSC(g1,s2,t18) <= 0
 RegDnSC_max_RT(g1,s2,t18): RDnSC(g1,s2,t18) <= 0
 RegUpSC_max_RT(g1,s2,t19): RUpSC(g1,s2,t19) <= 0
 RegDnSC_max_RT(g1,s2,t19): RDnSC(g1,s2,t19) <= 0
 RegUpSC_max_RT(g1,s2,t20): RUpSC(g1,s2,t20) <= 0
 RegDnSC_max_RT(g1,s2,t20): RDnSC(g1,s2,t20) <= 0
 RegUpSC_max_RT(g1,s2,t21): RUpSC(g1,s2,t21) <= 0
 RegDnSC_max_RT(g1,s2,t21): RDnSC(g1,s2,t21) <= 0
 RegUpSC_max_RT(g1,s2,t22): RUpSC(g1,s2,t22) <= 0
 RegDnSC_max_RT(g1,s2,t22): RDnSC(g1,s2,t22) <= 0
 RegUpSC_max_RT(g1,s2,t23): RUpSC(g1,s2,t23) <= 0
 RegDnSC_max_RT(g1,s2,t23): RDnSC(g1,s2,t23) <= 0
 RegUpSC_max_RT(g1,s2,t24): RUpSC(g1,s2,t24) <= 0
 RegDnSC_max_RT(g1,s2,t24): RDnSC(g1,s2,t24) <= 0
 Max_load_shed_RT(s1,t1): Lshed(s1,t1) <= 50
 Max_load_shed_RT(s1,t2): Lshed(s1,t2) <= 51.29409523
 Max_load_shed_RT(s1,t3): Lshed(s1,t3) <= 52.5
 Max_load_shed_RT(s1,t4): Lshed(s1,t4) <= 53.53553391
 Max_load_shed_RT(s1,t5): Lshed(s1,t5) <= 54.33012702
 Max_load_shed_RT(s1,t6): Lshed(s1,t6) <= 54.82962913
 Max_load_shed_RT(s1,t7): Lshed(s1,t7) <= 55
 Max_load_shed_RT(s1,t8): Lshed(s1,t8) <= 54.82962913
 Max_load_shed_RT(s1,t9): Lshed(s1,t9) <= 54.33012702
 Max_load_shed_RT(s1,t10): Lshed(s1,t10) <= 53.53553391
 Max_load_shed_RT(s1,t11): Lshed(s1,t11) <= 52.5
 Max_load_shed_RT(s1,t12): Lshed(s1,t12) <= 51.29409523
 Max_load_shed_RT(s1,t13): Lshed(s1,t13) <= 50
 Max_load_shed_RT(s1,t14): Lshed(s1,t14) <= 48.70590477
 Max_load_shed_RT(s1,t15): Lshed(s1,t15) <= 47.5
 Max_load_shed_RT(s1,t16): Lshed(s1,t16) <= 46.46446609
 Max_load_shed_RT(s1,t17): Lshed(s1,t17) <= 45.66987298
 Max_load_shed_RT(s1,t18): Lshed(s1,t18) <= 45.17037087
 Max_load_shed_RT(s1,t19): Lshed(s1,t19) <= 45
 Max_load_shed_RT(s1,t20): Lshed(s1,t20) <= 45.17037087
 Max_load_shed_RT(s1,t21): Lshed(s1,t21) <= 45.66987298
 Max_load_shed_RT(s1,t22): Lshed(s1,t22) <= 46.46446609
 Max_load_shed_RT(s1,t23): Lshed(s1,t23) <= 47.5
 Max_load_shed_RT(s1,t24): Lshed(s1,t24) <= 48.70590477
 Max_load_shed_RT(s2,t1): Lshed(s2,t1) <= 50
 Max_load_shed_RT(s2,t2): Lshed(s2,t2) <= 51.29409523
 Max_load_shed_RT(s2,t3): Lshed(s2,t3) <= 52.5
 Max_load_shed_RT(s2,t4): Lshed(s2,t4) <= 53.53553391
 Max_load_shed_RT(s2,t5): Lshed(s2,t5) <= 54.33012702
 Max_load_shed_RT(s2,t6): Lshed(s2,t6) <= 54.82962913
 Max_load_shed_RT(s2,t7): Lshed(s2,t7) <= 55
 Max_load_shed_RT(s2,t8): Lshed(s2,t8) <= 54.82962913
 Max_load_shed_RT(s2,t9): Lshed(s2,t9) <= 54.33012702
 Max_load_shed_RT(s2,t10): Lshed(s2,t10) <= 53.53553391
 Max_load_shed_RT(s2,t11): Lshed(s2,t11) <= 52.5
 Max_load_shed_RT(s2,t12): Lshed(s2,t12) <= 51.29409523
 Max_load_shed_RT(s2,t13): Lshed(s2,t13) <= 50
 Max_load_shed_RT(s2,t14): Lshed(s2,t14) <= 48.70590477
 Max_load_shed_RT(s2,t15): Lshed(s2,t15) <= 47.5
 Max_load_shed_RT(s2,t16): Lshed(s2,t16) <= 46.46446609
 Max_load_shed_RT(s2,t17): Lshed(s2,t17) <= 45.66987298
 Max_load_shed_RT(s2,t18): Lshed(s2,t18) <= 45.17037087
 Max_load_shed_RT(s2,t19): Lshed(s2,t19) <= 45
 Max_load_shed_RT(s2,t20): Lshed(s2,t20) <= 45.17037087
 Max_load_shed_RT(s2,t21): Lshed(s2,t21) <= 45.66987298
 Max_load_shed_RT(s2,t22): Lshed(s2,t22) <= 46.46446609
 Max_load_shed_RT(s2,t23): Lshed(s2,t23) <= 47.5
 Max_load_shed_RT(s2,t24): Lshed(s2,t24) <= 48.70590477
 Max_wind_spill_RT(w1,s1,t1): Wspill(w1,s1,t1) <= 13.64523828
 Max_wind_spill_RT(w1,s1,t2): Wspill(w1,s1,t2) <= 14.13210003
 Max_wind_spill_RT(w1,s1,t3): Wspill(w1,s1,t3) <= 9.571274219999999
 Max_wind_spill_RT(w1,s1,t4): Wspill(w1,s1,t4) <= 10.24495167
 Max_wind_spill_RT(w1,s1,t5): Wspill(w1,s1,t5) <= 13.37112045
 Max_wind_spill_RT(w1,s1,t6): Wspill(w1,s1,t6) <= 15.9762591
 Max_wind_spill_RT(w1,s1,t7): Wspill(w1,s1,t7) <= 13.09757973
 Max_wind_spill_RT(w1,s1,t8): Wspill(w1,s1,t8) <= 9.348263729999999
 Max_wind_spill_RT(w1,s1,t9): Wspill(w1,s1,t9) <= 8.03252799
 Max_wind_spill_RT(w1,s1,t10): Wspill(w1,s1,t10) <= 9.780529290000001
 Max_wind_spill_RT(w1,s1,t11): Wspill(w1,s1,t11) <= 13.23691422
 Max_wind_spill_RT(w1,s1,t12): Wspill(w1,s1,t12) <= 14.79118329
 Max_wind_spill_RT(w1,s1,t13): Wspill(w1,s1,t13) <= 22.67129373
 Max_wind_spill_RT(w1,s1,t14): Wspill(w1,s1,t14) <= 23.25377463
 Max_wind_spill_RT(w1,s1,t15): Wspill(w1,s1,t15) <= 24.08429517
 Max_wind_spill_RT(w1,s1,t16): Wspill(w1,s1,t16) <= 25.67222511
 Max_wind_spill_RT(w1,s1,t17): Wspill(w1,s1,t17) <= 26.96292903
 Max_wind_spill_RT(w1,s1,t18): Wspill(w1,s1,t18) <= 27.84705837
 Max_wind_spill_RT(w1,s1,t19): Wspill(w1,s1,t19) <= 27.97611309
 Max_wind_spill_RT(w1,s1,t20): Wspill(w1,s1,t20) <= 26.64932952
 Max_wind_spill_RT(w1,s1,t21): Wspill(w1,s1,t21) <= 27.01809513
 Max_wind_spill_RT(w1,s1,t22): Wspill(w1,s1,t22) <= 28.32297243
 Max_wind_spill_RT(w1,s1,t23): Wspill(w1,s1,t23) <= 28.87685715
 Max_wind_spill_RT(w1,s1,t24): Wspill(w1,s1,t24) <= 28.64355426
 Max_wind_spill_RT(w1,s2,t1): Wspill(w1,s2,t1) <= 15.6405261
 Max_wind_spill_RT(w1,s2,t2): Wspill(w1,s2,t2) <= 13.86895302
 Max_wind_spill_RT(w1,s2,t3): Wspill(w1,s2,t3) <= 6.45881973
 Max_wind_spill_RT(w1,s2,t4): Wspill(w1,s2,t4) <= 2.52463722
 Max_wind_spill_RT(w1,s2,t5): Wspill(w1,s2,t5) <= 1.46566404
 Max_wind_spill_RT(w1,s2,t6): Wspill(w1,s2,t6) <= 1.78731159
 Max_wind_spill_RT(w1,s2,t7): Wspill(w1,s2,t7) <= 2.82233721
 Max_wind_spill_RT(w1,s2,t8): Wspill(w1,s2,t8) <= 3.06365706
 Max_wind_spill_RT(w1,s2,t9): Wspill(w1,s2,t9) <= 3.72330549
 Max_wind_spill_RT(w1,s2,t10): Wspill(w1,s2,t10) <= 5.87754435
 Max_wind_spill_RT(w1,s2,t11): Wspill(w1,s2,t11) <= 7.27054521
 Max_wind_spill_RT(w1,s2,t12): Wspill(w1,s2,t12) <= 8.531094060000001
 Max_wind_spill_RT(w1,s2,t13): Wspill(w1,s2,t13) <= 9.673352430000001
 Max_wind_spill_RT(w1,s2,t14): Wspill(w1,s2,t14) <= 9.98061261
 Max_wind_spill_RT(w1,s2,t15): Wspill(w1,s2,t15) <= 11.17659936
 Max_wind_spill_RT(w1,s2,t16): Wspill(w1,s2,t16) <= 8.21749578
 Max_wind_spill_RT(w1,s2,t17): Wspill(w1,s2,t17) <= 12.18737028
 Max_wind_spill_RT(w1,s2,t18): Wspill(w1,s2,t18) <= 13.84594917
 Max_wind_spill_RT(w1,s2,t19): Wspill(w1,s2,t19) <= 10.52609511
 Max_wind_spill_RT(w1,s2,t20): Wspill(w1,s2,t20) <= 9.61658184
 Max_wind_spill_RT(w1,s2,t21): Wspill(w1,s2,t21) <= 10.08032745
 Max_wind_spill_RT(w1,s2,t22): Wspill(w1,s2,t22) <= 11.65214559
 Max_wind_spill_RT(w1,s2,t23): Wspill(w1,s2,t23) <= 13.81197936
 Max_wind_spill_RT(w1,s2,t24): Wspill(w1,s2,t24) <= 13.56418623
Bounds
End
